StudentsNr = 10;
InstructorsNr = 72;
DaysNr = 1;
SlotsPerDay = 20;
AvailabilitySlotsLenght = 10;
RoomNr = 1;
ProgrammNr = 2;
DegreeNr = 1;
RolesNr = 3;
CoursesNr = 3;
InstructorsProgramm = [{1, 2}, {1, 2}, {1, 2}, {1}, {1}, {1}, {1, 2}, {2}, {1}, {1}, {1}, {1, 2}, {2}, {2}, {1}, {1}, {1}, {1}, {1}, {1}, {2}, {2}, {2}, {1, 2}, {1, 2}, {2}, {2}, {2}, {1}, {1}, {1, 2}, {2}, {1}, {1}, {1}, {2}, {2}, {1, 2}, {2}, {1, 2}, {1, 2}, {1}, {2}, {2}, {2}, {1}, {1}, {1}, {1}, {2}, {1}, {2}, {1, 2}, {1, 2}, {1}, {1}, {1, 2}, {1}, {1}, {1, 2}, {2}, {1}, {2}, {2}, {1, 2}, {1, 2}, {2}, {1, 2}, {2}, {2}, {2}, {1, 2}];
InstructorRolesPerProgramm = [|{2, 4, 5, 6, 10, 11, 12, 18, 25, 29, 34, 42, 46, 53, 54, 56, 57, 65, 68, 72}, {3, 4, 5, 6, 7, 9, 10, 11, 17, 18, 24, 25, 30, 33, 42, 46, 48, 54, 55, 57, 62, 66, 72}, {1, 2, 3, 6, 7, 15, 17, 20, 25, 29, 31, 33, 34, 38, 41, 42, 56, 57, 59, 65, 66, 68, 72}|{2, 8, 12, 13, 14, 21, 23, 25, 27, 28, 32, 44, 53, 54, 57, 61, 65, 68, 72}, {3, 7, 22, 24, 25, 28, 32, 44, 45, 54, 57, 61, 64, 66, 67, 70, 72}, {1, 2, 3, 7, 21, 23, 25, 31, 32, 36, 37, 38, 41, 43, 50, 52, 57, 65, 66, 67, 68, 72}|];
InstructorsAvailability = [|0, 1, |0, 1, |0, 0, |1, 1, |0, 1, |1, 1, |1, 1, |1, 1, |1, 0, |0, 1, |1, 1, |0, 1, |0, 0, |1, 1, |0, 1, |1, 1, |0, 0, |0, 1, |0, 1, |1, 1, |0, 1, |0, 0, |0, 0, |0, 0, |0, 1, |1, 1, |1, 1, |1, 1, |0, 0, |0, 0, |1, 1, |1, 1, |1, 1, |1, 1, |1, 0, |0, 1, |1, 1, |0, 1, |1, 1, |0, 1, |1, 1, |0, 1, |1, 1, |1, 1, |1, 1, |1, 1, |0, 1, |1, 1, |0, 1, |0, 1, |1, 0, |1, 1, |0, 0, |0, 1, |0, 0, |0, 0, |1, 0, |0, 0, |1, 1, |1, 1, |1, 1, |1, 1, |0, 1, |1, 1, |1, 1, |1, 1, |1, 1, |0, 0, |0, 1, |0, 1, |1, 1, |1, 1|];
StudentsProgramm = [2, 1, 1, 1, 2, 1, 1, 2, 1, 2];
StudentsDegree = [1, 1, 1, 1, 1, 1, 1, 1, 1, 1];
StudentsSupervisorId = [21, 57, 29, 35, 14, 35, 15, 36, 53, 38];
StudentsCourseIds = [{1, 3}, {1, 3}, {1, 3}, {1, 3}, {1, 3}, {1, 3}, {1, 2}, {2, 3}, {1, 2}, {1, 2}];
StudentsAvailability = [|0, 1, |0, 0, |0, 0, |1, 1, |0, 0, |1, 1, |1, 1, |0, 1, |1, 1, |0, 0|];
TheoryticalMinCard = [0, 0, 0, 0, 0, 0, 0, 0, 0, 0];
CoursesInstructorIds = [{3, 17, 20, 33, 35, 38, 39, 42, 50, 53, 64, 67}, {2, 3, 4, 17, 22, 26, 37, 40, 42, 46, 51, 52, 54, 55, 60, 64, 67, 71, 72}, {1, 9, 16, 18, 19, 20, 22, 31, 32, 33, 35, 41, 42, 44, 48, 50, 51, 54, 56, 58, 59, 60, 63, 64, 65, 66, 69, 72}];
RolesDemands = [18, 14, 19];
RolesContinuity = [2, 1];
ExamLen = [2, 2, 2, 2, 2, 2, 2, 2, 2, 2];
LunchTsMinLen = 2;
LunchStarts = [10..12];
SupervisorAvailable = 0;
OptimalLunchLenght = [0, 2];
OptimalStartTs = [0, 1];
OptimalFinishTs = [0, 19];
MinimizeRooms = 400;
RolesSoftContinuity = [|1, 2, 3|3, 1, 4|];
SameDegreeInRoom = 20;
Mergeability = 0;
